(set-info :source |printed by MathSAT|)
(declare-fun main@%tmp11.i_0_3 () Int)
(declare-fun .y.17 () Int)
(declare-fun .y.13 () Int)
(declare-fun .y.18 () Int)
(declare-fun .y.14 () Int)
(declare-fun .y.19 () Int)
(declare-fun main@%shadow.mem2.0_0_3 () (Array Int Int))
(declare-fun .y.20 () (Array Int Int))
(declare-fun main@%tmp14.i_0_3 () Int)
(declare-fun .y.21 () Int)
(declare-fun main@%shadow.mem.0_0_3 () (Array Int Int))
(declare-fun .y.22 () (Array Int Int))
(declare-fun main@%tmp17.i_0_3 () Int)
(declare-fun .y.23 () Int)
(declare-fun main@%shadow.mem1.0_0_3 () (Array Int Int))
(declare-fun .y.24 () (Array Int Int))
(declare-fun main@%x.0.i_0_1 () Int)
(declare-fun .y.25 () Int)
(declare-fun main@%tmp2.i_0_3 () Int)
(declare-fun .y.26 () Int)
(declare-fun .loc.15 () Bool)
(declare-fun .loc.27 () Bool)
(declare-fun .loc.16 () Bool)
(declare-fun .loc.28 () Bool)
(declare-fun main@%tmp38.i_0 () Int)
(declare-fun main@%tmp41.i_0 () Int)
(declare-fun main@%tmp63.i_0_0 () Int)
(declare-fun main@%tmp56.i_0_0 () Int)
(declare-fun main@%tmp60.i_0_0 () Int)
(declare-fun main@%tmp52.i_0_0 () Int)
(define-fun .def_8 () Int (! main@%tmp11.i_0_3 :next |.y.17|))
(define-fun .def_10 () Int (! .y.13 :next |.y.18|))
(define-fun .def_12 () Int (! .y.14 :next |.y.19|))
(define-fun .def_14 () (Array Int Int) (! main@%shadow.mem2.0_0_3 :next |.y.20|))
(define-fun .def_16 () Int (! main@%tmp14.i_0_3 :next |.y.21|))
(define-fun .def_18 () (Array Int Int) (! main@%shadow.mem.0_0_3 :next |.y.22|))
(define-fun .def_20 () Int (! main@%tmp17.i_0_3 :next |.y.23|))
(define-fun .def_22 () (Array Int Int) (! main@%shadow.mem1.0_0_3 :next |.y.24|))
(define-fun .def_24 () Int (! main@%x.0.i_0_1 :next |.y.25|))
(define-fun .def_26 () Int (! main@%tmp2.i_0_3 :next |.y.26|))
(define-fun .def_28 () Bool (! .loc.15 :next |.loc.27|))
(define-fun .def_30 () Bool (! .loc.16 :next |.loc.28|))
(define-fun .def_55 () Int (! main@%tmp38.i_0 :next |.xtv.1|))
(define-fun .def_56 () Int (! main@%tmp41.i_0 :next |.xtv.2|))
(define-fun .def_60 () Int (! main@%tmp63.i_0_0 :next |.xtv.3|))
(define-fun .def_61 () Int (! main@%tmp56.i_0_0 :next |.xtv.4|))
(define-fun .def_65 () Int (! main@%tmp60.i_0_0 :next |.xtv.5|))
(define-fun .def_66 () Int (! main@%tmp52.i_0_0 :next |.xtv.6|))
(define-fun .def_128 () Bool (not .def_28))
(define-fun .def_40 () Bool (not .def_30))
(define-fun .def_244 () Bool (! (and .def_40 .def_128) :init true))
(define-fun .def_193 () Int (select .def_14 .def_61))
(define-fun .def_194 () Int (* (- 1) .def_193))
(define-fun .def_192 () Int (select .def_18 .def_65))
(define-fun .def_195 () Int (+ .def_192 .def_194))
(define-fun .def_233 () Int (+ .def_60 .def_195))
(define-fun .def_234 () Bool (= .def_233 0))
(define-fun .def_196 () Int (select .def_22 .def_66))
(define-fun .def_230 () Bool (= .def_60 .def_196))
(define-fun .def_231 () Bool (not .def_230))
(define-fun .def_224 () Int (* 16777216 .def_26))
(define-fun .def_225 () Real (* (/ 1 16777216) (to_real .def_224)))
(define-fun .def_226 () Int (to_int .def_225))
(define-fun .def_227 () Bool (<= .def_226 .def_24))
(define-fun .def_228 () Bool (not .def_227))
(define-fun .def_168 () Bool (<= .def_65 0))
(define-fun .def_169 () Bool (not .def_168))
(define-fun .def_33 () Bool (<= .def_16 0))
(define-fun .def_170 () Bool (or .def_33 .def_169))
(define-fun .def_107 () Int (* (- 1) .def_65))
(define-fun .def_164 () Int (+ .def_24 .def_107))
(define-fun .def_165 () Int (+ .def_16 .def_164))
(define-fun .def_166 () Bool (= .def_165 0))
(define-fun .def_157 () Bool (<= .def_8 0))
(define-fun .def_160 () Bool (not .def_157))
(define-fun .def_103 () Bool (<= .def_61 0))
(define-fun .def_104 () Bool (not .def_103))
(define-fun .def_158 () Bool (or .def_104 .def_157))
(define-fun .def_98 () Int (* (- 1) .def_61))
(define-fun .def_153 () Int (+ .def_24 .def_98))
(define-fun .def_154 () Int (+ .def_8 .def_153))
(define-fun .def_155 () Bool (= .def_154 0))
(define-fun .def_83 () Int (* (- 1) .def_66))
(define-fun .def_148 () Int (+ .def_24 .def_83))
(define-fun .def_149 () Int (+ .def_20 .def_148))
(define-fun .def_150 () Bool (= .def_149 0))
(define-fun .def_89 () Bool (<= .def_66 0))
(define-fun .def_90 () Bool (not .def_89))
(define-fun .def_35 () Bool (<= .def_20 0))
(define-fun .def_147 () Bool (or .def_35 .def_90))
(define-fun .def_151 () Bool (and .def_147 .def_150))
(define-fun .def_36 () Bool (not .def_35))
(define-fun .def_152 () Bool (and .def_36 .def_151))
(define-fun .def_156 () Bool (and .def_152 .def_155))
(define-fun .def_159 () Bool (and .def_156 .def_158))
(define-fun .def_161 () Bool (and .def_159 .def_160))
(define-fun .def_167 () Bool (and .def_161 .def_166))
(define-fun .def_171 () Bool (and .def_167 .def_170))
(define-fun .def_34 () Bool (not .def_33))
(define-fun .def_172 () Bool (and .def_34 .def_171))
(define-fun .def_229 () Bool (and .def_172 .def_228))
(define-fun .def_232 () Bool (and .def_229 .def_231))
(define-fun .def_235 () Bool (and .def_232 .def_234))
(define-fun .def_236 () Bool (and .def_30 .def_235))
(define-fun .def_237 () Bool (and .def_128 .def_236))
(define-fun .def_238 () Bool (and .loc.27 .def_237))
(define-fun .def_221 () Bool (= .def_24 .y.26))
(define-fun .def_214 () Bool (= .y.17 .def_10))
(define-fun .def_211 () Bool (= .y.25 0))
(define-fun .def_175 () Bool (not .loc.27))
(define-fun .def_209 () Bool (and .def_28 .def_175))
(define-fun .def_210 () Bool (and .def_40 .def_209))
(define-fun .def_212 () Bool (and .def_210 .def_211))
(define-fun .def_71 () Int (* (- 16777216) .def_24))
(define-fun .def_72 () Int (* (- 1) .def_71))
(define-fun .def_74 () Real (* (/ 1 16777216) (to_real .def_72)))
(define-fun .def_75 () Int (to_int .def_74))
(define-fun .def_76 () Bool (<= .def_75 .def_12))
(define-fun .def_213 () Bool (and .def_76 .def_212))
(define-fun .def_215 () Bool (and .def_213 .def_214))
(define-fun .def_177 () Bool (= .def_14 .y.20))
(define-fun .def_216 () Bool (and .def_177 .def_215))
(define-fun .def_42 () Bool (= .def_16 .y.21))
(define-fun .def_217 () Bool (and .def_42 .def_216))
(define-fun .def_180 () Bool (= .def_18 .y.22))
(define-fun .def_218 () Bool (and .def_180 .def_217))
(define-fun .def_44 () Bool (= .def_20 .y.23))
(define-fun .def_219 () Bool (and .def_44 .def_218))
(define-fun .def_183 () Bool (= .def_22 .y.24))
(define-fun .def_220 () Bool (and .def_183 .def_219))
(define-fun .def_222 () Bool (and .def_220 .def_221))
(define-fun .def_239 () Bool (or .def_222 .def_238))
(define-fun .def_207 () Bool (= .def_26 .y.26))
(define-fun .def_202 () Int (* (- 1) .y.25))
(define-fun .def_203 () Int (+ .def_24 .def_202))
(define-fun .def_204 () Bool (= .def_203 (- 1)))
(define-fun .def_198 () Int (+ .def_194 .def_196))
(define-fun .def_199 () Int (+ .def_192 .def_198))
(define-fun .def_200 () Bool (= .def_199 0))
(define-fun .def_185 () Int (* (- 16777216) .def_26))
(define-fun .def_186 () Int (* (- 1) .def_185))
(define-fun .def_187 () Real (* (/ 1 16777216) (to_real .def_186)))
(define-fun .def_188 () Int (to_int .def_187))
(define-fun .def_189 () Bool (<= .def_188 .def_24))
(define-fun .def_190 () Bool (not .def_189))
(define-fun .def_173 () Bool (and .def_30 .def_172))
(define-fun .def_174 () Bool (and .def_128 .def_173))
(define-fun .def_176 () Bool (and .def_174 .def_175))
(define-fun .def_178 () Bool (and .def_176 .def_177))
(define-fun .def_179 () Bool (and .def_42 .def_178))
(define-fun .def_181 () Bool (and .def_179 .def_180))
(define-fun .def_182 () Bool (and .def_44 .def_181))
(define-fun .def_184 () Bool (and .def_182 .def_183))
(define-fun .def_191 () Bool (and .def_184 .def_190))
(define-fun .def_201 () Bool (and .def_191 .def_200))
(define-fun .def_205 () Bool (and .def_201 .def_204))
(define-fun .def_46 () Bool (= .def_8 .y.17))
(define-fun .def_206 () Bool (and .def_46 .def_205))
(define-fun .def_208 () Bool (and .def_206 .def_207))
(define-fun .def_240 () Bool (or .def_208 .def_239))
(define-fun .def_241 () Bool (and .loc.28 .def_240))
(define-fun .def_144 () Bool (<= .y.25 0))
(define-fun .def_145 () Bool (not .def_144))
(define-fun .def_141 () Bool (<= .y.18 0))
(define-fun .def_142 () Bool (not .def_141))
(define-fun .def_138 () Bool (<= .y.21 0))
(define-fun .def_139 () Bool (not .def_138))
(define-fun .def_135 () Bool (<= .y.23 0))
(define-fun .def_136 () Bool (not .def_135))
(define-fun .def_133 () Bool (= .y.19 0))
(define-fun .def_129 () Bool (and .loc.27 .def_128))
(define-fun .def_130 () Bool (and .def_40 .def_129))
(define-fun .def_131 () Bool (and .def_46 .def_130))
(define-fun .def_48 () Bool (not .loc.28))
(define-fun .def_132 () Bool (and .def_48 .def_131))
(define-fun .def_134 () Bool (and .def_132 .def_133))
(define-fun .def_137 () Bool (and .def_134 .def_136))
(define-fun .def_140 () Bool (and .def_137 .def_139))
(define-fun .def_143 () Bool (and .def_140 .def_142))
(define-fun .def_146 () Bool (and .def_143 .def_145))
(define-fun .def_242 () Bool (or .def_146 .def_241))
(define-fun .def_126 () Bool (= .def_24 .y.25))
(define-fun .def_124 () Bool (= .def_10 .y.18))
(define-fun .def_120 () Bool (<= .def_56 0))
(define-fun .def_121 () Bool (not .def_120))
(define-fun .def_122 () Bool (or .def_35 .def_121))
(define-fun .def_115 () Int (* (- 1) .def_56))
(define-fun .def_116 () Int (+ .def_20 .def_115))
(define-fun .def_117 () Int (+ .def_12 .def_116))
(define-fun .def_118 () Bool (= .def_117 0))
(define-fun .def_108 () Int (+ .def_60 .def_107))
(define-fun .def_109 () Int (+ .def_55 .def_108))
(define-fun .def_110 () Bool (= .def_109 0))
(define-fun .def_105 () Bool (or .def_33 .def_104))
(define-fun .def_99 () Int (+ .def_16 .def_98))
(define-fun .def_100 () Int (+ .def_12 .def_99))
(define-fun .def_101 () Bool (= .def_100 0))
(define-fun .def_88 () Bool (<= .def_10 0))
(define-fun .def_93 () Bool (not .def_88))
(define-fun .def_91 () Bool (or .def_88 .def_90))
(define-fun .def_84 () Int (+ .def_12 .def_83))
(define-fun .def_85 () Int (+ .def_10 .def_84))
(define-fun .def_86 () Bool (= .def_85 0))
(define-fun .def_77 () Bool (not .def_76))
(define-fun .def_67 () (Array Int Int) (store .def_14 .def_66 .def_65))
(define-fun .def_68 () Bool (= .y.20 .def_67))
(define-fun .def_62 () (Array Int Int) (store .def_18 .def_61 .def_60))
(define-fun .def_63 () Bool (= .y.22 .def_62))
(define-fun .def_57 () (Array Int Int) (store .def_22 .def_56 .def_55))
(define-fun .def_58 () Bool (= .y.24 .def_57))
(define-fun .def_51 () Int (* (- 1) .y.19))
(define-fun .def_52 () Int (+ .def_12 .def_51))
(define-fun .def_53 () Bool (= .def_52 (- 1)))
(define-fun .def_37 () Bool (and .def_34 .def_36))
(define-fun .def_38 () Bool (and .def_28 .def_37))
(define-fun .def_39 () Bool (and .loc.27 .def_38))
(define-fun .def_41 () Bool (and .def_39 .def_40))
(define-fun .def_43 () Bool (and .def_41 .def_42))
(define-fun .def_45 () Bool (and .def_43 .def_44))
(define-fun .def_47 () Bool (and .def_45 .def_46))
(define-fun .def_49 () Bool (and .def_47 .def_48))
(define-fun .def_54 () Bool (and .def_49 .def_53))
(define-fun .def_59 () Bool (and .def_54 .def_58))
(define-fun .def_64 () Bool (and .def_59 .def_63))
(define-fun .def_69 () Bool (and .def_64 .def_68))
(define-fun .def_78 () Bool (and .def_69 .def_77))
(define-fun .def_87 () Bool (and .def_78 .def_86))
(define-fun .def_92 () Bool (and .def_87 .def_91))
(define-fun .def_94 () Bool (and .def_92 .def_93))
(define-fun .def_102 () Bool (and .def_94 .def_101))
(define-fun .def_106 () Bool (and .def_102 .def_105))
(define-fun .def_111 () Bool (and .def_106 .def_110))
(define-fun .def_119 () Bool (and .def_111 .def_118))
(define-fun .def_123 () Bool (and .def_119 .def_122))
(define-fun .def_125 () Bool (and .def_123 .def_124))
(define-fun .def_127 () Bool (and .def_125 .def_126))
(define-fun .def_243 () Bool (! (or .def_127 .def_242) :trans true))
(define-fun .def_245 () Bool (and .def_28 .def_30))
(define-fun .def_246 () Bool (! (not .def_245) :invar-property 0))
(assert true)
